
  17    0


   0  10 2 3 4 5 6 7 13 14 15 16 
   4   4 12 10 9 8 
   1   2 10 8 
   3   1 11 
  10   1 9 
  10   1 8 
   2   1 8 
   6   1 17
   5   1 17
   7   1 17
   6   1 17
   6   1 17
   2   1 17
   1   1 17
   3   1 17
   8   1 17
   0   0 
